
;this file is automatically generated: Tue Mar 02 16:20:04 CST 2021

;declarations generated

(declare-fun oclExcludes ( Int Int) Bool)
(declare-fun Cardinality ( Int) Int)
(declare-fun class19_Class19IntAttr1 ( Int) Int)
(declare-fun kcb9939a9_5d3d_4a7a_ba02_1b2e785b3510 () Int)
(declare-fun type_208f71dd_9519_4849_9da4_99a7215724c6_Class9 ( Int) Bool)
(declare-fun type_208f71dd_9519_4849_9da4_99a7215724c6_Class8 ( Int) Bool)
(declare-fun type_208f71dd_9519_4849_9da4_99a7215724c6_Class7 ( Int) Bool)
(declare-fun type_208f71dd_9519_4849_9da4_99a7215724c6_Class2 ( Int) Bool)
(declare-fun type_208f71dd_9519_4849_9da4_99a7215724c6_Class1 ( Int) Bool)
(declare-fun type_208f71dd_9519_4849_9da4_99a7215724c6_Class0 ( Int) Bool)
(declare-fun type_208f71dd_9519_4849_9da4_99a7215724c6_Class6 ( Int) Bool)
(declare-fun type_208f71dd_9519_4849_9da4_99a7215724c6_Class5 ( Int) Bool)
(declare-fun type_208f71dd_9519_4849_9da4_99a7215724c6_Class4 ( Int) Bool)
(declare-fun type_208f71dd_9519_4849_9da4_99a7215724c6_Class3 ( Int) Bool)
(declare-fun k11a220a6c_ee65_4ca9_b329_c6f133000455 () Int)
(declare-fun rel_727ed937_d9a7_4223_ab1f_7e0d1afbfbc1_Class19_Class27 ( Int Int) Bool)
(declare-fun oclSelect ( Int Bool) Int)
(declare-fun k1da2e7bb_7063_450d_b5d5_7842af5c07ba () Int)
(declare-fun obj_b8fd49d9_db80_4f49_8af6_6a702630891c ( Int) Int)
(declare-fun class27_Class27IntAttr1 ( Int) Int)
(declare-fun type_208f71dd_9519_4849_9da4_99a7215724c6_Class29 ( Int) Bool)
(declare-fun type_208f71dd_9519_4849_9da4_99a7215724c6_Class28 ( Int) Bool)
(declare-fun type_208f71dd_9519_4849_9da4_99a7215724c6_Class27 ( Int) Bool)
(declare-fun type_208f71dd_9519_4849_9da4_99a7215724c6_Class26 ( Int) Bool)
(declare-fun type_208f71dd_9519_4849_9da4_99a7215724c6_Class25 ( Int) Bool)
(declare-fun type_208f71dd_9519_4849_9da4_99a7215724c6_Class24 ( Int) Bool)
(declare-fun type_208f71dd_9519_4849_9da4_99a7215724c6_Class23 ( Int) Bool)
(declare-fun type_208f71dd_9519_4849_9da4_99a7215724c6_Class22 ( Int) Bool)
(declare-fun type_208f71dd_9519_4849_9da4_99a7215724c6_Class21 ( Int) Bool)
(declare-fun type_208f71dd_9519_4849_9da4_99a7215724c6_Class20 ( Int) Bool)
(declare-fun k21fb915cd_fcd8_414b_9721_3578e8f3d117 () Int)
(declare-fun Enum0 ( Int) Int)
(declare-fun Enum1 ( Int) Int)
(declare-fun type_208f71dd_9519_4849_9da4_99a7215724c6_Class19 ( Int) Bool)
(declare-fun Enum2 ( Int) Int)
(declare-fun type_208f71dd_9519_4849_9da4_99a7215724c6_Class18 ( Int) Bool)
(declare-fun type_208f71dd_9519_4849_9da4_99a7215724c6_Class17 ( Int) Bool)
(declare-fun type_208f71dd_9519_4849_9da4_99a7215724c6_Class16 ( Int) Bool)
(declare-fun type_208f71dd_9519_4849_9da4_99a7215724c6_Class15 ( Int) Bool)
(declare-fun type_208f71dd_9519_4849_9da4_99a7215724c6_Class14 ( Int) Bool)
(declare-fun type_208f71dd_9519_4849_9da4_99a7215724c6_Class13 ( Int) Bool)
(declare-fun type_208f71dd_9519_4849_9da4_99a7215724c6_Class12 ( Int) Bool)
(declare-fun type_208f71dd_9519_4849_9da4_99a7215724c6_Class11 ( Int) Bool)
(declare-fun type_208f71dd_9519_4849_9da4_99a7215724c6_Class10 ( Int) Bool)
(declare-fun container_ ( Int) Int)
(declare-fun oclIncludes ( Int Int) Bool)
(declare-fun ObjAt ( Int Int) Int)

;formula(s) generated
(assert (forall ((p Int)) (=> ( type_208f71dd_9519_4849_9da4_99a7215724c6_Class27 p )  (and (>= ( Enum0 ( obj_b8fd49d9_db80_4f49_8af6_6a702630891c p )  )  0) (<= ( Enum0 ( obj_b8fd49d9_db80_4f49_8af6_6a702630891c p )  )  3)))))
(assert (forall ((x Int)(y Int)) (=> (and ( rel_727ed937_d9a7_4223_ab1f_7e0d1afbfbc1_Class19_Class27 ( obj_b8fd49d9_db80_4f49_8af6_6a702630891c x )   ( obj_b8fd49d9_db80_4f49_8af6_6a702630891c y )  )  (and ( type_208f71dd_9519_4849_9da4_99a7215724c6_Class19 x )  (and (and ( type_208f71dd_9519_4849_9da4_99a7215724c6_Class27 y )  ( type_208f71dd_9519_4849_9da4_99a7215724c6_Class25 y ) ) ( type_208f71dd_9519_4849_9da4_99a7215724c6_Class17 y ) ))) (or (or (or (= (* ( Cardinality ( container_ x )  )  2) (* ( Cardinality ( container_ y )  )  0)) (and (= (* ( Cardinality ( container_ y )  )  0) (* ( Cardinality ( container_ x )  )  k1da2e7bb_7063_450d_b5d5_7842af5c07ba)) (>= k1da2e7bb_7063_450d_b5d5_7842af5c07ba 0))) (and (= (* ( Cardinality ( container_ x )  )  2) (* ( Cardinality ( container_ y )  )  kcb9939a9_5d3d_4a7a_ba02_1b2e785b3510)) (>= kcb9939a9_5d3d_4a7a_ba02_1b2e785b3510 0))) (and (= (* ( Cardinality ( container_ x )  )  k11a220a6c_ee65_4ca9_b329_c6f133000455) (* ( Cardinality ( container_ y )  )  k21fb915cd_fcd8_414b_9721_3578e8f3d117)) (and (>= k11a220a6c_ee65_4ca9_b329_c6f133000455 0) (>= k21fb915cd_fcd8_414b_9721_3578e8f3d117 0)))))))
(assert (! (forall ((v Int)) (=> (and (and ( type_208f71dd_9519_4849_9da4_99a7215724c6_Class27 v )  ( type_208f71dd_9519_4849_9da4_99a7215724c6_Class25 v ) ) ( type_208f71dd_9519_4849_9da4_99a7215724c6_Class17 v ) ) (or (not (= ( Enum0 ( obj_b8fd49d9_db80_4f49_8af6_6a702630891c v )  )  1) ) (and (forall ((v Int)) (=> (and (and ( type_208f71dd_9519_4849_9da4_99a7215724c6_Class27 v )  ( type_208f71dd_9519_4849_9da4_99a7215724c6_Class25 v ) ) ( type_208f71dd_9519_4849_9da4_99a7215724c6_Class17 v ) ) (<= ( class27_Class27IntAttr1 ( obj_b8fd49d9_db80_4f49_8af6_6a702630891c v )  )  12))) (forall ((v Int)) (=> (and (and ( type_208f71dd_9519_4849_9da4_99a7215724c6_Class27 v )  ( type_208f71dd_9519_4849_9da4_99a7215724c6_Class25 v ) ) ( type_208f71dd_9519_4849_9da4_99a7215724c6_Class17 v ) ) (>= ( class27_Class27IntAttr1 ( obj_b8fd49d9_db80_4f49_8af6_6a702630891c v )  )  5))))))):named l0))
(assert (! (forall ((c19_1 Int)) (=> ( type_208f71dd_9519_4849_9da4_99a7215724c6_Class19 c19_1 )  (exists ((c27_1 Int)) (and (and (and (and ( type_208f71dd_9519_4849_9da4_99a7215724c6_Class27 c27_1 )  ( type_208f71dd_9519_4849_9da4_99a7215724c6_Class25 c27_1 ) ) ( type_208f71dd_9519_4849_9da4_99a7215724c6_Class17 c27_1 ) ) ( rel_727ed937_d9a7_4223_ab1f_7e0d1afbfbc1_Class19_Class27 ( obj_b8fd49d9_db80_4f49_8af6_6a702630891c c19_1 )   ( obj_b8fd49d9_db80_4f49_8af6_6a702630891c c27_1 )  ) ) (< ( class19_Class19IntAttr1 ( obj_b8fd49d9_db80_4f49_8af6_6a702630891c c19_1 )  )  ( class27_Class27IntAttr1 ( obj_b8fd49d9_db80_4f49_8af6_6a702630891c c27_1 )  ) ))))):named l1))
(assert (! (exists ((o Int)) (and ( type_208f71dd_9519_4849_9da4_99a7215724c6_Class0 ( obj_b8fd49d9_db80_4f49_8af6_6a702630891c o )  )  ( type_208f71dd_9519_4849_9da4_99a7215724c6_Class25 ( obj_b8fd49d9_db80_4f49_8af6_6a702630891c o )  ) )):named c0))
(assert (! (exists ((o Int)) ( type_208f71dd_9519_4849_9da4_99a7215724c6_Class1 ( obj_b8fd49d9_db80_4f49_8af6_6a702630891c o )  ) ):named c1))
(assert (! (exists ((o Int)) ( type_208f71dd_9519_4849_9da4_99a7215724c6_Class10 ( obj_b8fd49d9_db80_4f49_8af6_6a702630891c o )  ) ):named c2))
(assert (! (exists ((o Int)) ( type_208f71dd_9519_4849_9da4_99a7215724c6_Class11 ( obj_b8fd49d9_db80_4f49_8af6_6a702630891c o )  ) ):named c3))
(assert (! (exists ((o Int)) ( type_208f71dd_9519_4849_9da4_99a7215724c6_Class12 ( obj_b8fd49d9_db80_4f49_8af6_6a702630891c o )  ) ):named c4))
(assert (! (exists ((o Int)) (and (and ( type_208f71dd_9519_4849_9da4_99a7215724c6_Class13 ( obj_b8fd49d9_db80_4f49_8af6_6a702630891c o )  )  ( type_208f71dd_9519_4849_9da4_99a7215724c6_Class25 ( obj_b8fd49d9_db80_4f49_8af6_6a702630891c o )  ) ) ( type_208f71dd_9519_4849_9da4_99a7215724c6_Class0 ( obj_b8fd49d9_db80_4f49_8af6_6a702630891c o )  ) )):named c5))
(assert (! (exists ((o Int)) (and (and ( type_208f71dd_9519_4849_9da4_99a7215724c6_Class14 ( obj_b8fd49d9_db80_4f49_8af6_6a702630891c o )  )  ( type_208f71dd_9519_4849_9da4_99a7215724c6_Class25 ( obj_b8fd49d9_db80_4f49_8af6_6a702630891c o )  ) ) ( type_208f71dd_9519_4849_9da4_99a7215724c6_Class17 ( obj_b8fd49d9_db80_4f49_8af6_6a702630891c o )  ) )):named c6))
(assert (! (exists ((o Int)) ( type_208f71dd_9519_4849_9da4_99a7215724c6_Class15 ( obj_b8fd49d9_db80_4f49_8af6_6a702630891c o )  ) ):named c7))
(assert (! (exists ((o Int)) ( type_208f71dd_9519_4849_9da4_99a7215724c6_Class16 ( obj_b8fd49d9_db80_4f49_8af6_6a702630891c o )  ) ):named c8))
(assert (! (exists ((o Int)) (and ( type_208f71dd_9519_4849_9da4_99a7215724c6_Class17 ( obj_b8fd49d9_db80_4f49_8af6_6a702630891c o )  )  ( type_208f71dd_9519_4849_9da4_99a7215724c6_Class25 ( obj_b8fd49d9_db80_4f49_8af6_6a702630891c o )  ) )):named c9))
(assert (! (exists ((o Int)) (and (and ( type_208f71dd_9519_4849_9da4_99a7215724c6_Class18 ( obj_b8fd49d9_db80_4f49_8af6_6a702630891c o )  )  ( type_208f71dd_9519_4849_9da4_99a7215724c6_Class25 ( obj_b8fd49d9_db80_4f49_8af6_6a702630891c o )  ) ) ( type_208f71dd_9519_4849_9da4_99a7215724c6_Class17 ( obj_b8fd49d9_db80_4f49_8af6_6a702630891c o )  ) )):named c10))
(assert (! (exists ((o Int)) ( type_208f71dd_9519_4849_9da4_99a7215724c6_Class19 ( obj_b8fd49d9_db80_4f49_8af6_6a702630891c o )  ) ):named c11))
(assert (! (exists ((o Int)) ( type_208f71dd_9519_4849_9da4_99a7215724c6_Class2 ( obj_b8fd49d9_db80_4f49_8af6_6a702630891c o )  ) ):named c12))
(assert (! (exists ((o Int)) ( type_208f71dd_9519_4849_9da4_99a7215724c6_Class20 ( obj_b8fd49d9_db80_4f49_8af6_6a702630891c o )  ) ):named c13))
(assert (! (exists ((o Int)) (and (and (and ( type_208f71dd_9519_4849_9da4_99a7215724c6_Class21 ( obj_b8fd49d9_db80_4f49_8af6_6a702630891c o )  )  ( type_208f71dd_9519_4849_9da4_99a7215724c6_Class25 ( obj_b8fd49d9_db80_4f49_8af6_6a702630891c o )  ) ) ( type_208f71dd_9519_4849_9da4_99a7215724c6_Class13 ( obj_b8fd49d9_db80_4f49_8af6_6a702630891c o )  ) ) ( type_208f71dd_9519_4849_9da4_99a7215724c6_Class0 ( obj_b8fd49d9_db80_4f49_8af6_6a702630891c o )  ) )):named c14))
(assert (! (exists ((o Int)) ( type_208f71dd_9519_4849_9da4_99a7215724c6_Class22 ( obj_b8fd49d9_db80_4f49_8af6_6a702630891c o )  ) ):named c15))
(assert (! (exists ((o Int)) (and (and (and (and ( type_208f71dd_9519_4849_9da4_99a7215724c6_Class23 ( obj_b8fd49d9_db80_4f49_8af6_6a702630891c o )  )  ( type_208f71dd_9519_4849_9da4_99a7215724c6_Class25 ( obj_b8fd49d9_db80_4f49_8af6_6a702630891c o )  ) ) ( type_208f71dd_9519_4849_9da4_99a7215724c6_Class13 ( obj_b8fd49d9_db80_4f49_8af6_6a702630891c o )  ) ) ( type_208f71dd_9519_4849_9da4_99a7215724c6_Class0 ( obj_b8fd49d9_db80_4f49_8af6_6a702630891c o )  ) ) ( type_208f71dd_9519_4849_9da4_99a7215724c6_Class21 ( obj_b8fd49d9_db80_4f49_8af6_6a702630891c o )  ) )):named c16))
(assert (! (exists ((o Int)) (and (and ( type_208f71dd_9519_4849_9da4_99a7215724c6_Class24 ( obj_b8fd49d9_db80_4f49_8af6_6a702630891c o )  )  ( type_208f71dd_9519_4849_9da4_99a7215724c6_Class25 ( obj_b8fd49d9_db80_4f49_8af6_6a702630891c o )  ) ) ( type_208f71dd_9519_4849_9da4_99a7215724c6_Class0 ( obj_b8fd49d9_db80_4f49_8af6_6a702630891c o )  ) )):named c17))
(assert (! (exists ((o Int)) ( type_208f71dd_9519_4849_9da4_99a7215724c6_Class25 ( obj_b8fd49d9_db80_4f49_8af6_6a702630891c o )  ) ):named c18))
(assert (! (exists ((o Int)) ( type_208f71dd_9519_4849_9da4_99a7215724c6_Class26 ( obj_b8fd49d9_db80_4f49_8af6_6a702630891c o )  ) ):named c19))
(assert (! (exists ((o Int)) (and (and ( type_208f71dd_9519_4849_9da4_99a7215724c6_Class27 ( obj_b8fd49d9_db80_4f49_8af6_6a702630891c o )  )  ( type_208f71dd_9519_4849_9da4_99a7215724c6_Class25 ( obj_b8fd49d9_db80_4f49_8af6_6a702630891c o )  ) ) ( type_208f71dd_9519_4849_9da4_99a7215724c6_Class17 ( obj_b8fd49d9_db80_4f49_8af6_6a702630891c o )  ) )):named c20))
(assert (! (exists ((o Int)) (and (and (and (and ( type_208f71dd_9519_4849_9da4_99a7215724c6_Class28 ( obj_b8fd49d9_db80_4f49_8af6_6a702630891c o )  )  ( type_208f71dd_9519_4849_9da4_99a7215724c6_Class25 ( obj_b8fd49d9_db80_4f49_8af6_6a702630891c o )  ) ) ( type_208f71dd_9519_4849_9da4_99a7215724c6_Class13 ( obj_b8fd49d9_db80_4f49_8af6_6a702630891c o )  ) ) ( type_208f71dd_9519_4849_9da4_99a7215724c6_Class0 ( obj_b8fd49d9_db80_4f49_8af6_6a702630891c o )  ) ) ( type_208f71dd_9519_4849_9da4_99a7215724c6_Class21 ( obj_b8fd49d9_db80_4f49_8af6_6a702630891c o )  ) )):named c21))
(assert (! (exists ((o Int)) ( type_208f71dd_9519_4849_9da4_99a7215724c6_Class29 ( obj_b8fd49d9_db80_4f49_8af6_6a702630891c o )  ) ):named c22))
(assert (! (exists ((o Int)) ( type_208f71dd_9519_4849_9da4_99a7215724c6_Class3 ( obj_b8fd49d9_db80_4f49_8af6_6a702630891c o )  ) ):named c23))
(assert (! (exists ((o Int)) (and (and (and (and ( type_208f71dd_9519_4849_9da4_99a7215724c6_Class4 ( obj_b8fd49d9_db80_4f49_8af6_6a702630891c o )  )  ( type_208f71dd_9519_4849_9da4_99a7215724c6_Class25 ( obj_b8fd49d9_db80_4f49_8af6_6a702630891c o )  ) ) ( type_208f71dd_9519_4849_9da4_99a7215724c6_Class24 ( obj_b8fd49d9_db80_4f49_8af6_6a702630891c o )  ) ) ( type_208f71dd_9519_4849_9da4_99a7215724c6_Class6 ( obj_b8fd49d9_db80_4f49_8af6_6a702630891c o )  ) ) ( type_208f71dd_9519_4849_9da4_99a7215724c6_Class0 ( obj_b8fd49d9_db80_4f49_8af6_6a702630891c o )  ) )):named c24))
(assert (! (exists ((o Int)) ( type_208f71dd_9519_4849_9da4_99a7215724c6_Class5 ( obj_b8fd49d9_db80_4f49_8af6_6a702630891c o )  ) ):named c25))
(assert (! (exists ((o Int)) (and (and (and ( type_208f71dd_9519_4849_9da4_99a7215724c6_Class6 ( obj_b8fd49d9_db80_4f49_8af6_6a702630891c o )  )  ( type_208f71dd_9519_4849_9da4_99a7215724c6_Class25 ( obj_b8fd49d9_db80_4f49_8af6_6a702630891c o )  ) ) ( type_208f71dd_9519_4849_9da4_99a7215724c6_Class24 ( obj_b8fd49d9_db80_4f49_8af6_6a702630891c o )  ) ) ( type_208f71dd_9519_4849_9da4_99a7215724c6_Class0 ( obj_b8fd49d9_db80_4f49_8af6_6a702630891c o )  ) )):named c26))
(assert (! (exists ((o Int)) ( type_208f71dd_9519_4849_9da4_99a7215724c6_Class7 ( obj_b8fd49d9_db80_4f49_8af6_6a702630891c o )  ) ):named c27))
(assert (! (exists ((o Int)) ( type_208f71dd_9519_4849_9da4_99a7215724c6_Class8 ( obj_b8fd49d9_db80_4f49_8af6_6a702630891c o )  ) ):named c28))
(assert (! (exists ((o Int)) ( type_208f71dd_9519_4849_9da4_99a7215724c6_Class9 ( obj_b8fd49d9_db80_4f49_8af6_6a702630891c o )  ) ):named c29))

 ;end of formula 